NAME : XML100_3163_15
DIMENSION : 101
NB_CLUSTERS : 6
CLUSTERING_ALG : KMeans
CLUSTERING_PARAMS : k(5)
CLUSTERS
1 0
2 2 5 11 13 18 22 28 56 67 68 80 83 87 89 92 95
3 4 12 21 23 32 33 36 42 46 54 59 61 71 74 76 79 85 94 97
4 7 9 10 14 15 17 19 27 38 39 43 44 45 47 52 57 62 63 65 66 70 73 77 81 88 98
5 1 24 26 29 30 31 34 41 49 51 53 64 78 86 91 93 96 99 100
6 3 6 8 16 20 25 35 37 40 48 50 55 58 60 69 72 75 82 84 90
EOF